
<<< setup

Version identifier: 22.1.1.0 | 2022-11-27 | 9160aff4d
Tried aggregator 1 time.
LP Presolve eliminated 1787 rows and 1756 columns.
Reduced LP has 2 rows, 9 columns, and 9 nonzeros.
Presolve time = 0.00 sec. (2.57 ticks)

Iteration log . . .
Iteration:     1   Dual infeasibility =             0.000000
Iteration:     2   Dual objective     =            88.768292
main returns 0

<<< main


<<< done

